(set-info :smt-lib-version 2.6)
(set-logic LRA)
(set-info :source |
   Monniaux, David; Quantifier Elimination by Lazy Model Enumeration, CAV 2010
|)
(set-info :category "random")
; ./Mjollnir_examples/B4/formula_115.m
(set-info :status unsat)
(assert
 (exists ((|v11:0| Real) )(exists ((|v10:1| Real) )(exists ((|v9:2| Real) )(exists ((|v8:3| Real) )(forall ((|v7:4| Real) )(forall ((|v6:5| Real) )(forall ((|v5:6| Real) )(forall ((|v4:7| Real) )(exists ((|v3:8| Real) )(exists ((|v2:9| Real) )(exists ((|v1:10| Real) )(exists ((|v0:11| Real) )(let ((?x101 7))
(let ((?x606 (+ (+ (* (- 11) |v6:5|) (* 2 |v4:7|)) (* 18 |v5:6|))))
(let ((?x113 (- 16)))
(let ((?x120 (- 14)))
(let ((?x260 (* ?x120 |v3:8|)))
(let ((?x600 (+ (+ (* (- 15) |v3:8|) (* (- 19) |v5:6|)) (* 17 |v5:6|))))
(let (($x610 (or (<= (+ ?x600 ?x260) ?x113) (<= (+ ?x606 (* (- 18) |v0:11|)) ?x101))))
(let ((?x27 4))
(let ((?x98 15))
(let ((?x353 (* ?x98 |v0:11|)))
(let ((?x593 (+ (+ (+ (* 11 |v1:10|) (* ?x27 |v10:1|)) ?x353) (* (- 20) |v8:3|))))
(let ((?x30 8))
(let ((?x19 (- 2)))
(let ((?x538 (* ?x19 |v4:7|)))
(let ((?x186 (- 12)))
(let ((?x270 (* ?x186 |v4:7|)))
(let ((?x587 (+ (+ (+ (* 11 |v5:6|) (* 9 |v0:11|)) ?x270) ?x538)))
(let ((?x33 (- 3)))
(let ((?x577 (+ (+ (* ?x30 |v2:9|) (* (- 17) |v5:6|)) (* 9 |v10:1|))))
(let ((?x232 20))
(let ((?x569 (+ (+ (* (- 20) |v10:1|) (* 9 |v4:7|)) (* ?x98 |v6:5|))))
(let (($x581 (and (<= (+ ?x569 (* (- 4) |v8:3|)) ?x232) (<= (+ ?x577 (* (- 7) |v3:8|)) ?x33))))
(let ((?x46 (- 6)))
(let ((?x561 (+ (+ (* ?x30 |v7:4|) (* 0 |v10:1|)) (* (- 19) |v6:5|))))
(let ((?x556 (+ (+ (+ (* (- 17) |v1:10|) (* ?x120 |v8:3|)) (* ?x46 |v5:6|)) (* ?x101 |v11:0|))))
(let (($x582 (and (and (<= ?x556 ?x113) (<= (+ ?x561 (* (- 20) |v4:7|)) ?x46)) $x581)))
(let ((?x202 14))
(let ((?x546 (+ (+ (+ (* ?x186 |v11:0|) (* (- 17) |v3:8|)) (* ?x113 |v3:8|)) (* ?x120 |v0:11|))))
(let ((?x72 (- 17)))
(let ((?x536 (* ?x72 |v1:10|)))
(let ((?x539 (+ (+ (+ (* (- 10) |v11:0|) (* (- 9) |v6:5|)) ?x536) ?x538)))
(let ((?x529 (+ (+ (* 18 |v4:7|) (* ?x33 |v7:4|)) (* (- 1) |v3:8|))))
(let ((?x61 1))
(let ((?x522 (+ (+ (* (- 7) |v7:4|) (* (- 4) |v10:1|)) (* (- 10) |v8:3|))))
(let (($x533 (and (<= (+ ?x522 (* 12 |v6:5|)) ?x61) (<= (+ ?x529 (* 13 |v4:7|)) ?x232))))
(let ((?x142 (- 11)))
(let ((?x10 12))
(let ((?x157 (* ?x10 |v11:0|)))
(let ((?x514 (+ (+ (* (- 20) |v0:11|) (* (- 4) |v1:10|)) (* 3 |v4:7|))))
(let ((?x66 (- 15)))
(let ((?x507 (+ (+ (* 16 |v9:2|) (* ?x98 |v2:9|)) (* 10 |v5:6|))))
(let ((?x480 (* ?x33 |v4:7|)))
(let ((?x274 (- 5)))
(let ((?x398 (* ?x274 |v3:8|)))
(let ((?x500 (+ (+ (+ (* 19 |v11:0|) (* (- 18) |v4:7|)) ?x398) ?x480)))
(let ((?x107 9))
(let ((?x341 (* ?x113 |v5:6|)))
(let ((?x494 (+ (+ (* 6 |v8:3|) (* 19 |v10:1|)) (* (- 19) |v11:0|))))
(let (($x518 (and (and (<= (+ ?x494 ?x341) ?x107) (<= ?x500 ?x113)) (and (<= (+ ?x507 (* ?x33 |v1:10|)) ?x66) (<= (+ ?x514 ?x157) ?x142)))))
(let (($x613 (and (and $x518 (and $x533 (and (<= ?x539 ?x19) (<= ?x546 ?x202)))) (and $x582 (and (and (<= ?x587 ?x30) (<= ?x593 ?x27)) $x610)))))
(let ((?x236 11))
(let ((?x261 (* ?x236 |v4:7|)))
(let (($x487 (<= (+ (+ (+ (* ?x202 |v6:5|) |v5:6|) (* 13 |v0:11|)) ?x261) ?x61)))
(let ((?x133 5))
(let ((?x481 (+ (+ (+ (* 19 |v6:5|) (* ?x186 |v1:10|)) (* ?x133 |v5:6|)) ?x480)))
(let ((?x54 (- 18)))
(let ((?x277 0))
(let ((?x467 (* ?x277 |v0:11|)))
(let ((?x473 (+ (+ (* 16 |v3:8|) (* ?x72 |v7:4|)) (* 19 |v1:10|))))
(let ((?x172 (- 19)))
(let ((?x468 (+ (+ (+ (* 16 |v6:5|) (* ?x133 |v3:8|)) (* ?x54 |v10:1|)) ?x467)))
(let (($x489 (and (and (<= ?x468 ?x172) (<= (+ ?x473 ?x467) ?x54)) (and (<= ?x481 ?x133) $x487))))
(let ((?x400 (- 8)))
(let ((?x458 (+ (+ (+ (* ?x133 |v0:11|) (* ?x27 |v0:11|)) (* ?x172 |v2:9|)) (* ?x400 |v8:3|))))
(let ((?x77 10))
(let ((?x38 19))
(let ((?x447 (* ?x38 |v10:1|)))
(let ((?x450 (+ (+ (+ (* 17 |v3:8|) (* ?x142 |v1:10|)) ?x447) (* (- 4) |v6:5|))))
(let ((?x58 3))
(let ((?x440 (* ?x236 |v1:10|)))
(let ((?x441 (+ (+ (+ (* 16 |v4:7|) (* ?x120 |v7:4|)) (* ?x54 |v7:4|)) ?x440)))
(let ((?x434 (+ (+ (+ (* ?x142 |v11:0|) (* ?x10 |v9:2|)) (* 17 |v9:2|)) (* ?x113 |v1:10|))))
(let (($x461 (and (and (<= ?x434 ?x186) (<= ?x441 ?x58)) (and (<= ?x450 ?x77) (<= ?x458 ?x400)))))
(let ((?x226 (- 20)))
(let ((?x227 (* ?x226 |v2:9|)))
(let ((?x423 (+ (+ (+ (* 16 |v3:8|) |v7:4|) (* 18 |v4:7|)) ?x227)))
(let (($x419 (<= (+ (+ (+ (* ?x277 |v8:3|) (* ?x107 |v7:4|)) (* ?x120 |v4:7|)) ?x270) ?x46)))
(let ((?x88 (- 9)))
(let ((?x373 (* ?x88 |v4:7|)))
(let (($x412 (<= (+ (+ (+ (* ?x101 |v4:7|) (* ?x142 |v6:5|)) (* ?x88 |v0:11|)) ?x373) ?x120)))
(let ((?x405 (* ?x88 |v0:11|)))
(let (($x407 (<= (+ (+ (+ ?x398 (* ?x400 |v11:0|)) (* 13 |v3:8|)) ?x405) ?x101)))
(let ((?x394 (+ (+ (+ (* (- 10) |v6:5|) (* ?x33 |v11:0|)) (* ?x38 |v7:4|)) (* ?x172 |v4:7|))))
(let ((?x80 2))
(let ((?x308 (- 7)))
(let ((?x387 (* ?x308 |v7:4|)))
(let (($x396 (and (<= (+ (+ (+ (* ?x277 |v1:10|) ?x341) (* ?x274 |v0:11|)) ?x387) ?x80) (<= ?x394 ?x142))))
(let ((?x380 (+ (+ (+ (* ?x38 |v5:6|) (* ?x232 |v9:2|)) (* 13 |v0:11|)) (* ?x226 |v1:10|))))
(let ((?x374 (+ (+ (+ (* ?x232 |v6:5|) (* 13 |v0:11|)) (* ?x101 |v1:10|)) ?x373)))
(let (($x427 (and (or (and (<= ?x374 ?x30) (<= ?x380 ?x107)) $x396) (and (and $x407 $x412) (and $x419 (<= ?x423 ?x236))))))
(let ((?x50 (- 1)))
(let ((?x362 (+ (+ (+ (* (- 4) |v9:2|) (* ?x120 |v5:6|)) (* ?x27 |v3:8|)) (* ?x113 |v10:1|))))
(let (($x355 (<= (+ (+ (+ (* ?x27 |v11:0|) (* ?x77 |v10:1|)) (* ?x308 |v1:10|)) ?x353) ?x98)))
(let ((?x233 (* ?x232 |v4:7|)))
(let (($x346 (<= (+ (+ (+ ?x341 (* (- 10) |v6:5|)) (* ?x19 |v11:0|)) ?x233) ?x38)))
(let ((?x93 18))
(let ((?x339 (+ (+ (+ (* ?x172 |v0:11|) (* (- 13) |v2:9|)) (* ?x277 |v9:2|)) (* 6 |v3:8|))))
(let ((?x329 (+ (+ (+ (* (- 4) |v4:7|) (* ?x10 |v5:6|)) (* ?x46 |v2:9|)) (* ?x202 |v2:9|))))
(let ((?x269 (* ?x19 |v0:11|)))
(let ((?x320 (+ (+ (+ (* 6 |v9:2|) (* (- 13) |v8:3|)) ?x269) (* ?x27 |v8:3|))))
(let ((?x311 (* ?x38 |v11:0|)))
(let ((?x312 (+ (+ (+ (* ?x226 |v0:11|) (* 17 |v2:9|)) (* ?x308 |v11:0|)) ?x311)))
(let (($x303 (<= (+ (+ (+ (* ?x107 |v11:0|) (* ?x120 |v7:4|)) (* ?x77 |v9:2|)) |v7:4|) ?x38)))
(let (($x366 (and (and (and $x303 (<= ?x312 ?x66)) (and (<= ?x320 ?x61) (<= ?x329 ?x226))) (and (and (<= ?x339 ?x93) $x346) (and $x355 (<= ?x362 ?x50))))))
(let ((?x85 13))
(let ((?x293 (+ (+ (+ (* ?x186 |v9:2|) (* ?x113 |v3:8|)) (* ?x277 |v5:6|)) (* ?x101 |v6:5|))))
(let ((?x285 (+ (+ (+ (* ?x186 |v7:4|) (* ?x202 |v9:2|)) (* ?x88 |v3:8|)) (* 6 |v4:7|))))
(let (($x279 (and (<= (+ (+ (+ ?x260 ?x261) (* ?x77 |v7:4|)) (* ?x186 |v1:10|)) ?x58) (<= (+ (+ (+ ?x269 ?x270) ?x261) (* ?x274 |v1:10|)) ?x277))))
(let ((?x169 (* ?x133 |v9:2|)))
(let (($x257 (<= (+ (+ (+ (* ?x107 |v8:3|) (* ?x72 |v8:3|)) (* ?x33 |v11:0|)) ?x169) ?x38)))
(let ((?x249 (+ (+ (+ (* ?x236 |v10:1|) (* ?x46 |v10:1|)) (* ?x93 |v4:7|)) (* 17 |v6:5|))))
(let ((?x192 6))
(let (($x241 (<= (+ (+ (+ (* ?x10 |v5:6|) ?x233) (* ?x236 |v6:5|)) (* ?x202 |v3:8|)) ?x192)))
(let (($x229 (<= (+ (+ (+ (* ?x30 |v1:10|) (* ?x113 |v2:9|)) (* ?x192 |v8:3|)) ?x227) ?x72)))
(let (($x297 (and (or (or $x229 $x241) (and (<= ?x249 ?x101) $x257)) (and $x279 (and (<= ?x285 ?x236) (<= ?x293 ?x85))))))
(let ((?x179 17))
(let ((?x104 (* ?x58 |v8:3|)))
(let (($x216 (<= (+ (+ (+ (* ?x85 |v0:11|) (* ?x19 |v7:4|)) (* ?x50 |v0:11|)) ?x104) ?x179)))
(let ((?x208 (+ (+ (+ (* ?x202 |v9:2|) (* ?x186 |v2:9|)) (* ?x77 |v11:0|)) (* ?x50 |v5:6|))))
(let ((?x197 (* ?x107 |v4:7|)))
(let (($x199 (<= (+ (+ (+ (* ?x30 |v1:10|) (* ?x192 |v2:9|)) (* ?x133 |v7:4|)) ?x197) ?x186)))
(let ((?x188 (+ (+ (+ (* ?x179 |v1:10|) (* ?x120 |v11:0|)) (* ?x80 |v6:5|)) (* ?x186 |v10:1|))))
(let ((?x24 16))
(let (($x175 (<= (+ (+ (+ (* ?x19 |v8:3|) (* ?x142 |v5:6|)) ?x169) (* ?x172 |v10:1|)) ?x24)))
(let (($x167 (<= (+ (+ (+ (* ?x19 |v11:0|) (* ?x80 |v5:6|)) |v6:5|) (* ?x50 |v4:7|)) ?x61)))
(let (($x159 (<= (+ (+ (+ (* ?x66 |v0:11|) (* ?x50 |v10:1|)) (* ?x10 |v4:7|)) ?x157) ?x88)))
(let ((?x149 (+ (+ (+ (* ?x77 |v4:7|) (* ?x142 |v5:6|)) (* ?x66 |v2:9|)) (* (- 10) |v3:8|))))
(let (($x219 (and (and (and (<= ?x149 ?x77) $x159) (and $x167 $x175)) (and (and (<= ?x188 ?x61) $x199) (and (<= ?x208 ?x77) $x216)))))
(let ((?x134 (* ?x133 |v5:6|)))
(let ((?x135 (+ (+ (+ (* ?x101 |v4:7|) (* ?x77 |v3:8|)) (* (- 10) |v0:11|)) ?x134)))
(let ((?x124 (+ (+ (+ (* ?x113 |v7:4|) (* (- 13) |v9:2|)) (* ?x120 |v7:4|)) (* ?x54 |v5:6|))))
(let (($x110 (<= (+ (+ (+ (* ?x98 |v1:10|) (* ?x101 |v8:3|)) ?x104) (* ?x107 |v7:4|)) ?x10)))
(let ((?x14 (- 10)))
(let ((?x95 (+ (+ (+ (* ?x85 |v6:5|) (* ?x88 |v6:5|)) (* ?x66 |v4:7|)) (* ?x93 |v8:3|))))
(let ((?x78 (* ?x77 |v11:0|)))
(let (($x81 (<= (+ (+ (+ (* ?x66 |v4:7|) (* ?x58 |v6:5|)) (* ?x72 |v4:7|)) ?x78) ?x80)))
(let ((?x60 (+ (+ (+ (* ?x46 |v7:4|) (* ?x50 |v9:2|)) (* ?x54 |v9:2|)) (* ?x58 |v7:4|))))
(let ((?x11 (* ?x10 |v0:11|)))
(let (($x42 (<= (+ (+ (+ (* ?x30 |v7:4|) (* ?x33 |v8:3|)) (* ?x38 |v5:6|)) ?x11) ?x14)))
(let (($x28 (<= (+ (+ (+ ?x11 (* ?x14 |v7:4|)) (* ?x19 |v8:3|)) (* ?x24 |v1:10|)) ?x27)))
(let (($x139 (and (and (and $x28 $x42) (and (<= ?x60 ?x61) $x81)) (and (and (<= ?x95 ?x14) $x110) (and (<= ?x124 ?x93) (<= ?x135 ?x10))))))
(and (and (and $x139 $x219) (and $x297 $x366)) (and (and $x427 (or $x461 $x489)) $x613))))))))))))))))))))))))))))))))))))))))))))))))))))))))))))))))))))))))))))))))))))))))))))))))))))))))))))))))))))))))))))))))))))))))))))))))
)
)
)
)
)
)
)
)
)
)
)
)
(check-sat)
(exit)

